62	0

0	3	2	3	4
8	3	5	6	8
9	5	7	9	10	11	13
8	3	5	6	8
8	4	7	9	12	20
7	5	7	9	10	11	13
9	6	14	15	16	17	18	19
9	2	12	20
9	6	14	15	16	17	18	19
10	6	14	15	16	17	18	19
2	2	12	20
8	6	14	15	16	17	18	19
4	6	14	15	16	17	18	19
9	3	27	29	30
8	6	22	24	25	26	28	30
4	7	22	23	24	25	26	28	30
8	6	22	24	25	26	28	30
3	1	21
2	1	21
10	1	21
1	7	22	23	24	25	26	28	30
8	3	35	40	41
8	1	31
7	6	32	33	34	35	36	37
10	4	38	39	45	48
2	2	27	29
1	1	31
7	6	32	33	34	35	36	37
5	6	32	33	34	35	36	37
5	1	31
1	6	32	33	34	35	36	37
9	3	38	39	48
2	6	38	39	40	41	45	48
10	5	42	43	44	46	50
7	4	38	39	45	48
2	6	38	39	40	41	45	48
3	4	38	39	45	48
1	5	42	43	44	46	50
10	4	49	52	53	55
8	5	42	43	44	46	50
8	5	42	43	44	46	50
5	3	49	51	54
6	2	49	51
1	1	47
9	2	49	51
3	3	49	51	54
2	3	49	51	54
9	2	49	51
4	2	56	59
10	3	52	53	55
2	3	52	53	55
2	3	56	57	59
9	1	58
8	2	56	59
3	2	56	59
4	1	58
5	1	58
3	1	60
9	1	60
3	1	61
6	1	62
0	0
